* #variable= 112 #constraint= 441
****************************************
* begin normalizer comments
* category= DEC-SMALLINT-LIN
* end normalizer comments
****************************************
+1 x1 +1 x3 +1 x2 +1 x4 >= 1 ;
-1 x1 -1 x3 +1 x2 +1 x4 >= -1 ;
+1 x1 +1 x3 -1 x2 -1 x4 >= -1 ;
-1 x1 -1 x3 -1 x2 -1 x4 >= -3 ;
+1 x1 +1 x7 +1 x2 +1 x8 >= 1 ;
-1 x1 -1 x7 +1 x2 +1 x8 >= -1 ;
+1 x1 +1 x7 -1 x2 -1 x8 >= -1 ;
-1 x1 -1 x7 -1 x2 -1 x8 >= -3 ;
+1 x1 +1 x25 +1 x2 +1 x26 >= 1 ;
-1 x1 -1 x25 +1 x2 +1 x26 >= -1 ;
+1 x1 +1 x25 -1 x2 -1 x26 >= -1 ;
-1 x1 -1 x25 -1 x2 -1 x26 >= -3 ;
+1 x1 +1 x29 +1 x2 +1 x30 >= 1 ;
-1 x1 -1 x29 +1 x2 +1 x30 >= -1 ;
+1 x1 +1 x29 -1 x2 -1 x30 >= -1 ;
-1 x1 -1 x29 -1 x2 -1 x30 >= -3 ;
+1 x3 +1 x5 +1 x4 +1 x6 >= 1 ;
-1 x3 -1 x5 +1 x4 +1 x6 >= -1 ;
+1 x3 +1 x5 -1 x4 -1 x6 >= -1 ;
-1 x3 -1 x5 -1 x4 -1 x6 >= -3 ;
+1 x3 +1 x23 +1 x4 +1 x24 >= 1 ;
-1 x3 -1 x23 +1 x4 +1 x24 >= -1 ;
+1 x3 +1 x23 -1 x4 -1 x24 >= -1 ;
-1 x3 -1 x23 -1 x4 -1 x24 >= -3 ;
+1 x3 +1 x27 +1 x4 +1 x28 >= 1 ;
-1 x3 -1 x27 +1 x4 +1 x28 >= -1 ;
+1 x3 +1 x27 -1 x4 -1 x28 >= -1 ;
-1 x3 -1 x27 -1 x4 -1 x28 >= -3 ;
+1 x5 +1 x11 +1 x6 +1 x12 >= 1 ;
-1 x5 -1 x11 +1 x6 +1 x12 >= -1 ;
+1 x5 +1 x11 -1 x6 -1 x12 >= -1 ;
-1 x5 -1 x11 -1 x6 -1 x12 >= -3 ;
+1 x5 +1 x25 +1 x6 +1 x26 >= 1 ;
-1 x5 -1 x25 +1 x6 +1 x26 >= -1 ;
+1 x5 +1 x25 -1 x6 -1 x26 >= -1 ;
-1 x5 -1 x25 -1 x6 -1 x26 >= -3 ;
+1 x5 +1 x33 +1 x6 +1 x34 >= 1 ;
-1 x5 -1 x33 +1 x6 +1 x34 >= -1 ;
+1 x5 +1 x33 -1 x6 -1 x34 >= -1 ;
-1 x5 -1 x33 -1 x6 -1 x34 >= -3 ;
+1 x7 +1 x9 +1 x8 +1 x10 >= 1 ;
-1 x7 -1 x9 +1 x8 +1 x10 >= -1 ;
+1 x7 +1 x9 -1 x8 -1 x10 >= -1 ;
-1 x7 -1 x9 -1 x8 -1 x10 >= -3 ;
+1 x7 +1 x23 +1 x8 +1 x24 >= 1 ;
-1 x7 -1 x23 +1 x8 +1 x24 >= -1 ;
+1 x7 +1 x23 -1 x8 -1 x24 >= -1 ;
-1 x7 -1 x23 -1 x8 -1 x24 >= -3 ;
+1 x7 +1 x31 +1 x8 +1 x32 >= 1 ;
-1 x7 -1 x31 +1 x8 +1 x32 >= -1 ;
+1 x7 +1 x31 -1 x8 -1 x32 >= -1 ;
-1 x7 -1 x31 -1 x8 -1 x32 >= -3 ;
+1 x9 +1 x15 +1 x10 +1 x16 >= 1 ;
-1 x9 -1 x15 +1 x10 +1 x16 >= -1 ;
+1 x9 +1 x15 -1 x10 -1 x16 >= -1 ;
-1 x9 -1 x15 -1 x10 -1 x16 >= -3 ;
+1 x9 +1 x29 +1 x10 +1 x30 >= 1 ;
-1 x9 -1 x29 +1 x10 +1 x30 >= -1 ;
+1 x9 +1 x29 -1 x10 -1 x30 >= -1 ;
-1 x9 -1 x29 -1 x10 -1 x30 >= -3 ;
+1 x9 +1 x37 +1 x10 +1 x38 >= 1 ;
-1 x9 -1 x37 +1 x10 +1 x38 >= -1 ;
+1 x9 +1 x37 -1 x10 -1 x38 >= -1 ;
-1 x9 -1 x37 -1 x10 -1 x38 >= -3 ;
+1 x11 +1 x13 +1 x12 +1 x14 >= 1 ;
-1 x11 -1 x13 +1 x12 +1 x14 >= -1 ;
+1 x11 +1 x13 -1 x12 -1 x14 >= -1 ;
-1 x11 -1 x13 -1 x12 -1 x14 >= -3 ;
+1 x11 +1 x27 +1 x12 +1 x28 >= 1 ;
-1 x11 -1 x27 +1 x12 +1 x28 >= -1 ;
+1 x11 +1 x27 -1 x12 -1 x28 >= -1 ;
-1 x11 -1 x27 -1 x12 -1 x28 >= -3 ;
+1 x11 +1 x35 +1 x12 +1 x36 >= 1 ;
-1 x11 -1 x35 +1 x12 +1 x36 >= -1 ;
+1 x11 +1 x35 -1 x12 -1 x36 >= -1 ;
-1 x11 -1 x35 -1 x12 -1 x36 >= -3 ;
+1 x13 +1 x19 +1 x14 +1 x20 >= 1 ;
-1 x13 -1 x19 +1 x14 +1 x20 >= -1 ;
+1 x13 +1 x19 -1 x14 -1 x20 >= -1 ;
-1 x13 -1 x19 -1 x14 -1 x20 >= -3 ;
+1 x13 +1 x33 +1 x14 +1 x34 >= 1 ;
-1 x13 -1 x33 +1 x14 +1 x34 >= -1 ;
+1 x13 +1 x33 -1 x14 -1 x34 >= -1 ;
-1 x13 -1 x33 -1 x14 -1 x34 >= -3 ;
+1 x13 +1 x41 +1 x14 +1 x42 >= 1 ;
-1 x13 -1 x41 +1 x14 +1 x42 >= -1 ;
+1 x13 +1 x41 -1 x14 -1 x42 >= -1 ;
-1 x13 -1 x41 -1 x14 -1 x42 >= -3 ;
+1 x15 +1 x17 +1 x16 +1 x18 >= 1 ;
-1 x15 -1 x17 +1 x16 +1 x18 >= -1 ;
+1 x15 +1 x17 -1 x16 -1 x18 >= -1 ;
-1 x15 -1 x17 -1 x16 -1 x18 >= -3 ;
+1 x15 +1 x31 +1 x16 +1 x32 >= 1 ;
-1 x15 -1 x31 +1 x16 +1 x32 >= -1 ;
+1 x15 +1 x31 -1 x16 -1 x32 >= -1 ;
-1 x15 -1 x31 -1 x16 -1 x32 >= -3 ;
+1 x15 +1 x39 +1 x16 +1 x40 >= 1 ;
-1 x15 -1 x39 +1 x16 +1 x40 >= -1 ;
+1 x15 +1 x39 -1 x16 -1 x40 >= -1 ;
-1 x15 -1 x39 -1 x16 -1 x40 >= -3 ;
+1 x17 +1 x21 +1 x18 +1 x22 >= 1 ;
-1 x17 -1 x21 +1 x18 +1 x22 >= -1 ;
+1 x17 +1 x21 -1 x18 -1 x22 >= -1 ;
-1 x17 -1 x21 -1 x18 -1 x22 >= -3 ;
+1 x17 +1 x37 +1 x18 +1 x38 >= 1 ;
-1 x17 -1 x37 +1 x18 +1 x38 >= -1 ;
+1 x17 +1 x37 -1 x18 -1 x38 >= -1 ;
-1 x17 -1 x37 -1 x18 -1 x38 >= -3 ;
+1 x17 +1 x43 +1 x18 +1 x44 >= 1 ;
-1 x17 -1 x43 +1 x18 +1 x44 >= -1 ;
+1 x17 +1 x43 -1 x18 -1 x44 >= -1 ;
-1 x17 -1 x43 -1 x18 -1 x44 >= -3 ;
+1 x19 +1 x21 +1 x20 +1 x22 >= 1 ;
-1 x19 -1 x21 +1 x20 +1 x22 >= -1 ;
+1 x19 +1 x21 -1 x20 -1 x22 >= -1 ;
-1 x19 -1 x21 -1 x20 -1 x22 >= -3 ;
+1 x19 +1 x35 +1 x20 +1 x36 >= 1 ;
-1 x19 -1 x35 +1 x20 +1 x36 >= -1 ;
+1 x19 +1 x35 -1 x20 -1 x36 >= -1 ;
-1 x19 -1 x35 -1 x20 -1 x36 >= -3 ;
+1 x19 +1 x43 +1 x20 +1 x44 >= 1 ;
-1 x19 -1 x43 +1 x20 +1 x44 >= -1 ;
+1 x19 +1 x43 -1 x20 -1 x44 >= -1 ;
-1 x19 -1 x43 -1 x20 -1 x44 >= -3 ;
+1 x21 +1 x39 +1 x22 +1 x40 >= 1 ;
-1 x21 -1 x39 +1 x22 +1 x40 >= -1 ;
+1 x21 +1 x39 -1 x22 -1 x40 >= -1 ;
-1 x21 -1 x39 -1 x22 -1 x40 >= -3 ;
+1 x21 +1 x41 +1 x22 +1 x42 >= 1 ;
-1 x21 -1 x41 +1 x22 +1 x42 >= -1 ;
+1 x21 +1 x41 -1 x22 -1 x42 >= -1 ;
-1 x21 -1 x41 -1 x22 -1 x42 >= -3 ;
+1 x23 +1 x47 +1 x24 +1 x48 >= 1 ;
-1 x23 -1 x47 +1 x24 +1 x48 >= -1 ;
+1 x23 +1 x47 -1 x24 -1 x48 >= -1 ;
-1 x23 -1 x47 -1 x24 -1 x48 >= -3 ;
+1 x23 +1 x51 +1 x24 +1 x52 >= 1 ;
-1 x23 -1 x51 +1 x24 +1 x52 >= -1 ;
+1 x23 +1 x51 -1 x24 -1 x52 >= -1 ;
-1 x23 -1 x51 -1 x24 -1 x52 >= -3 ;
+1 x25 +1 x45 +1 x26 +1 x46 >= 1 ;
-1 x25 -1 x45 +1 x26 +1 x46 >= -1 ;
+1 x25 +1 x45 -1 x26 -1 x46 >= -1 ;
-1 x25 -1 x45 -1 x26 -1 x46 >= -3 ;
+1 x25 +1 x49 +1 x26 +1 x50 >= 1 ;
-1 x25 -1 x49 +1 x26 +1 x50 >= -1 ;
+1 x25 +1 x49 -1 x26 -1 x50 >= -1 ;
-1 x25 -1 x49 -1 x26 -1 x50 >= -3 ;
+1 x27 +1 x47 +1 x28 +1 x48 >= 1 ;
-1 x27 -1 x47 +1 x28 +1 x48 >= -1 ;
+1 x27 +1 x47 -1 x28 -1 x48 >= -1 ;
-1 x27 -1 x47 -1 x28 -1 x48 >= -3 ;
+1 x27 +1 x55 +1 x28 +1 x56 >= 1 ;
-1 x27 -1 x55 +1 x28 +1 x56 >= -1 ;
+1 x27 +1 x55 -1 x28 -1 x56 >= -1 ;
-1 x27 -1 x55 -1 x28 -1 x56 >= -3 ;
+1 x29 +1 x45 +1 x30 +1 x46 >= 1 ;
-1 x29 -1 x45 +1 x30 +1 x46 >= -1 ;
+1 x29 +1 x45 -1 x30 -1 x46 >= -1 ;
-1 x29 -1 x45 -1 x30 -1 x46 >= -3 ;
+1 x29 +1 x53 +1 x30 +1 x54 >= 1 ;
-1 x29 -1 x53 +1 x30 +1 x54 >= -1 ;
+1 x29 +1 x53 -1 x30 -1 x54 >= -1 ;
-1 x29 -1 x53 -1 x30 -1 x54 >= -3 ;
+1 x31 +1 x51 +1 x32 +1 x52 >= 1 ;
-1 x31 -1 x51 +1 x32 +1 x52 >= -1 ;
+1 x31 +1 x51 -1 x32 -1 x52 >= -1 ;
-1 x31 -1 x51 -1 x32 -1 x52 >= -3 ;
+1 x31 +1 x59 +1 x32 +1 x60 >= 1 ;
-1 x31 -1 x59 +1 x32 +1 x60 >= -1 ;
+1 x31 +1 x59 -1 x32 -1 x60 >= -1 ;
-1 x31 -1 x59 -1 x32 -1 x60 >= -3 ;
+1 x33 +1 x49 +1 x34 +1 x50 >= 1 ;
-1 x33 -1 x49 +1 x34 +1 x50 >= -1 ;
+1 x33 +1 x49 -1 x34 -1 x50 >= -1 ;
-1 x33 -1 x49 -1 x34 -1 x50 >= -3 ;
+1 x33 +1 x57 +1 x34 +1 x58 >= 1 ;
-1 x33 -1 x57 +1 x34 +1 x58 >= -1 ;
+1 x33 +1 x57 -1 x34 -1 x58 >= -1 ;
-1 x33 -1 x57 -1 x34 -1 x58 >= -3 ;
+1 x35 +1 x55 +1 x36 +1 x56 >= 1 ;
-1 x35 -1 x55 +1 x36 +1 x56 >= -1 ;
+1 x35 +1 x55 -1 x36 -1 x56 >= -1 ;
-1 x35 -1 x55 -1 x36 -1 x56 >= -3 ;
+1 x35 +1 x63 +1 x36 +1 x64 >= 1 ;
-1 x35 -1 x63 +1 x36 +1 x64 >= -1 ;
+1 x35 +1 x63 -1 x36 -1 x64 >= -1 ;
-1 x35 -1 x63 -1 x36 -1 x64 >= -3 ;
+1 x37 +1 x53 +1 x38 +1 x54 >= 1 ;
-1 x37 -1 x53 +1 x38 +1 x54 >= -1 ;
+1 x37 +1 x53 -1 x38 -1 x54 >= -1 ;
-1 x37 -1 x53 -1 x38 -1 x54 >= -3 ;
+1 x37 +1 x61 +1 x38 +1 x62 >= 1 ;
-1 x37 -1 x61 +1 x38 +1 x62 >= -1 ;
+1 x37 +1 x61 -1 x38 -1 x62 >= -1 ;
-1 x37 -1 x61 -1 x38 -1 x62 >= -3 ;
+1 x39 +1 x59 +1 x40 +1 x60 >= 1 ;
-1 x39 -1 x59 +1 x40 +1 x60 >= -1 ;
+1 x39 +1 x59 -1 x40 -1 x60 >= -1 ;
-1 x39 -1 x59 -1 x40 -1 x60 >= -3 ;
+1 x39 +1 x65 +1 x40 +1 x66 >= 1 ;
-1 x39 -1 x65 +1 x40 +1 x66 >= -1 ;
+1 x39 +1 x65 -1 x40 -1 x66 >= -1 ;
-1 x39 -1 x65 -1 x40 -1 x66 >= -3 ;
+1 x41 +1 x57 +1 x42 +1 x58 >= 1 ;
-1 x41 -1 x57 +1 x42 +1 x58 >= -1 ;
+1 x41 +1 x57 -1 x42 -1 x58 >= -1 ;
-1 x41 -1 x57 -1 x42 -1 x58 >= -3 ;
+1 x41 +1 x65 +1 x42 +1 x66 >= 1 ;
-1 x41 -1 x65 +1 x42 +1 x66 >= -1 ;
+1 x41 +1 x65 -1 x42 -1 x66 >= -1 ;
-1 x41 -1 x65 -1 x42 -1 x66 >= -3 ;
+1 x43 +1 x61 +1 x44 +1 x62 >= 1 ;
-1 x43 -1 x61 +1 x44 +1 x62 >= -1 ;
+1 x43 +1 x61 -1 x44 -1 x62 >= -1 ;
-1 x43 -1 x61 -1 x44 -1 x62 >= -3 ;
+1 x43 +1 x63 +1 x44 +1 x64 >= 1 ;
-1 x43 -1 x63 +1 x44 +1 x64 >= -1 ;
+1 x43 +1 x63 -1 x44 -1 x64 >= -1 ;
-1 x43 -1 x63 -1 x44 -1 x64 >= -3 ;
+1 x45 +1 x69 +1 x46 +1 x70 >= 1 ;
-1 x45 -1 x69 +1 x46 +1 x70 >= -1 ;
+1 x45 +1 x69 -1 x46 -1 x70 >= -1 ;
-1 x45 -1 x69 -1 x46 -1 x70 >= -3 ;
+1 x45 +1 x73 +1 x46 +1 x74 >= 1 ;
-1 x45 -1 x73 +1 x46 +1 x74 >= -1 ;
+1 x45 +1 x73 -1 x46 -1 x74 >= -1 ;
-1 x45 -1 x73 -1 x46 -1 x74 >= -3 ;
+1 x47 +1 x67 +1 x48 +1 x68 >= 1 ;
-1 x47 -1 x67 +1 x48 +1 x68 >= -1 ;
+1 x47 +1 x67 -1 x48 -1 x68 >= -1 ;
-1 x47 -1 x67 -1 x48 -1 x68 >= -3 ;
+1 x47 +1 x71 +1 x48 +1 x72 >= 1 ;
-1 x47 -1 x71 +1 x48 +1 x72 >= -1 ;
+1 x47 +1 x71 -1 x48 -1 x72 >= -1 ;
-1 x47 -1 x71 -1 x48 -1 x72 >= -3 ;
+1 x49 +1 x69 +1 x50 +1 x70 >= 1 ;
-1 x49 -1 x69 +1 x50 +1 x70 >= -1 ;
+1 x49 +1 x69 -1 x50 -1 x70 >= -1 ;
-1 x49 -1 x69 -1 x50 -1 x70 >= -3 ;
+1 x49 +1 x77 +1 x50 +1 x78 >= 1 ;
-1 x49 -1 x77 +1 x50 +1 x78 >= -1 ;
+1 x49 +1 x77 -1 x50 -1 x78 >= -1 ;
-1 x49 -1 x77 -1 x50 -1 x78 >= -3 ;
+1 x51 +1 x67 +1 x52 +1 x68 >= 1 ;
-1 x51 -1 x67 +1 x52 +1 x68 >= -1 ;
+1 x51 +1 x67 -1 x52 -1 x68 >= -1 ;
-1 x51 -1 x67 -1 x52 -1 x68 >= -3 ;
+1 x51 +1 x75 +1 x52 +1 x76 >= 1 ;
-1 x51 -1 x75 +1 x52 +1 x76 >= -1 ;
+1 x51 +1 x75 -1 x52 -1 x76 >= -1 ;
-1 x51 -1 x75 -1 x52 -1 x76 >= -3 ;
+1 x53 +1 x73 +1 x54 +1 x74 >= 1 ;
-1 x53 -1 x73 +1 x54 +1 x74 >= -1 ;
+1 x53 +1 x73 -1 x54 -1 x74 >= -1 ;
-1 x53 -1 x73 -1 x54 -1 x74 >= -3 ;
+1 x53 +1 x81 +1 x54 +1 x82 >= 1 ;
-1 x53 -1 x81 +1 x54 +1 x82 >= -1 ;
+1 x53 +1 x81 -1 x54 -1 x82 >= -1 ;
-1 x53 -1 x81 -1 x54 -1 x82 >= -3 ;
+1 x55 +1 x71 +1 x56 +1 x72 >= 1 ;
-1 x55 -1 x71 +1 x56 +1 x72 >= -1 ;
+1 x55 +1 x71 -1 x56 -1 x72 >= -1 ;
-1 x55 -1 x71 -1 x56 -1 x72 >= -3 ;
+1 x55 +1 x79 +1 x56 +1 x80 >= 1 ;
-1 x55 -1 x79 +1 x56 +1 x80 >= -1 ;
+1 x55 +1 x79 -1 x56 -1 x80 >= -1 ;
-1 x55 -1 x79 -1 x56 -1 x80 >= -3 ;
+1 x57 +1 x77 +1 x58 +1 x78 >= 1 ;
-1 x57 -1 x77 +1 x58 +1 x78 >= -1 ;
+1 x57 +1 x77 -1 x58 -1 x78 >= -1 ;
-1 x57 -1 x77 -1 x58 -1 x78 >= -3 ;
+1 x57 +1 x85 +1 x58 +1 x86 >= 1 ;
-1 x57 -1 x85 +1 x58 +1 x86 >= -1 ;
+1 x57 +1 x85 -1 x58 -1 x86 >= -1 ;
-1 x57 -1 x85 -1 x58 -1 x86 >= -3 ;
+1 x59 +1 x75 +1 x60 +1 x76 >= 1 ;
-1 x59 -1 x75 +1 x60 +1 x76 >= -1 ;
+1 x59 +1 x75 -1 x60 -1 x76 >= -1 ;
-1 x59 -1 x75 -1 x60 -1 x76 >= -3 ;
+1 x59 +1 x83 +1 x60 +1 x84 >= 1 ;
-1 x59 -1 x83 +1 x60 +1 x84 >= -1 ;
+1 x59 +1 x83 -1 x60 -1 x84 >= -1 ;
-1 x59 -1 x83 -1 x60 -1 x84 >= -3 ;
+1 x61 +1 x81 +1 x62 +1 x82 >= 1 ;
-1 x61 -1 x81 +1 x62 +1 x82 >= -1 ;
+1 x61 +1 x81 -1 x62 -1 x82 >= -1 ;
-1 x61 -1 x81 -1 x62 -1 x82 >= -3 ;
+1 x61 +1 x87 +1 x62 +1 x88 >= 1 ;
-1 x61 -1 x87 +1 x62 +1 x88 >= -1 ;
+1 x61 +1 x87 -1 x62 -1 x88 >= -1 ;
-1 x61 -1 x87 -1 x62 -1 x88 >= -3 ;
+1 x63 +1 x79 +1 x64 +1 x80 >= 1 ;
-1 x63 -1 x79 +1 x64 +1 x80 >= -1 ;
+1 x63 +1 x79 -1 x64 -1 x80 >= -1 ;
-1 x63 -1 x79 -1 x64 -1 x80 >= -3 ;
+1 x63 +1 x87 +1 x64 +1 x88 >= 1 ;
-1 x63 -1 x87 +1 x64 +1 x88 >= -1 ;
+1 x63 +1 x87 -1 x64 -1 x88 >= -1 ;
-1 x63 -1 x87 -1 x64 -1 x88 >= -3 ;
+1 x65 +1 x83 +1 x66 +1 x84 >= 1 ;
-1 x65 -1 x83 +1 x66 +1 x84 >= -1 ;
+1 x65 +1 x83 -1 x66 -1 x84 >= -1 ;
-1 x65 -1 x83 -1 x66 -1 x84 >= -3 ;
+1 x65 +1 x85 +1 x66 +1 x86 >= 1 ;
-1 x65 -1 x85 +1 x66 +1 x86 >= -1 ;
+1 x65 +1 x85 -1 x66 -1 x86 >= -1 ;
-1 x65 -1 x85 -1 x66 -1 x86 >= -3 ;
+1 x67 +1 x91 +1 x68 +1 x92 >= 1 ;
-1 x67 -1 x91 +1 x68 +1 x92 >= -1 ;
+1 x67 +1 x91 -1 x68 -1 x92 >= -1 ;
-1 x67 -1 x91 -1 x68 -1 x92 >= -3 ;
+1 x67 +1 x95 +1 x68 +1 x96 >= 1 ;
-1 x67 -1 x95 +1 x68 +1 x96 >= -1 ;
+1 x67 +1 x95 -1 x68 -1 x96 >= -1 ;
-1 x67 -1 x95 -1 x68 -1 x96 >= -3 ;
+1 x69 +1 x89 +1 x70 +1 x90 >= 1 ;
-1 x69 -1 x89 +1 x70 +1 x90 >= -1 ;
+1 x69 +1 x89 -1 x70 -1 x90 >= -1 ;
-1 x69 -1 x89 -1 x70 -1 x90 >= -3 ;
+1 x69 +1 x93 +1 x70 +1 x94 >= 1 ;
-1 x69 -1 x93 +1 x70 +1 x94 >= -1 ;
+1 x69 +1 x93 -1 x70 -1 x94 >= -1 ;
-1 x69 -1 x93 -1 x70 -1 x94 >= -3 ;
+1 x71 +1 x91 +1 x72 +1 x92 >= 1 ;
-1 x71 -1 x91 +1 x72 +1 x92 >= -1 ;
+1 x71 +1 x91 -1 x72 -1 x92 >= -1 ;
-1 x71 -1 x91 -1 x72 -1 x92 >= -3 ;
+1 x71 +1 x99 +1 x72 +1 x100 >= 1 ;
-1 x71 -1 x99 +1 x72 +1 x100 >= -1 ;
+1 x71 +1 x99 -1 x72 -1 x100 >= -1 ;
-1 x71 -1 x99 -1 x72 -1 x100 >= -3 ;
+1 x73 +1 x89 +1 x74 +1 x90 >= 1 ;
-1 x73 -1 x89 +1 x74 +1 x90 >= -1 ;
+1 x73 +1 x89 -1 x74 -1 x90 >= -1 ;
-1 x73 -1 x89 -1 x74 -1 x90 >= -3 ;
+1 x73 +1 x97 +1 x74 +1 x98 >= 1 ;
-1 x73 -1 x97 +1 x74 +1 x98 >= -1 ;
+1 x73 +1 x97 -1 x74 -1 x98 >= -1 ;
-1 x73 -1 x97 -1 x74 -1 x98 >= -3 ;
+1 x75 +1 x95 +1 x76 +1 x96 >= 1 ;
-1 x75 -1 x95 +1 x76 +1 x96 >= -1 ;
+1 x75 +1 x95 -1 x76 -1 x96 >= -1 ;
-1 x75 -1 x95 -1 x76 -1 x96 >= -3 ;
+1 x75 +1 x103 +1 x76 +1 x104 >= 1 ;
-1 x75 -1 x103 +1 x76 +1 x104 >= -1 ;
+1 x75 +1 x103 -1 x76 -1 x104 >= -1 ;
-1 x75 -1 x103 -1 x76 -1 x104 >= -3 ;
+1 x77 +1 x93 +1 x78 +1 x94 >= 1 ;
-1 x77 -1 x93 +1 x78 +1 x94 >= -1 ;
+1 x77 +1 x93 -1 x78 -1 x94 >= -1 ;
-1 x77 -1 x93 -1 x78 -1 x94 >= -3 ;
+1 x77 +1 x101 +1 x78 +1 x102 >= 1 ;
-1 x77 -1 x101 +1 x78 +1 x102 >= -1 ;
+1 x77 +1 x101 -1 x78 -1 x102 >= -1 ;
-1 x77 -1 x101 -1 x78 -1 x102 >= -3 ;
+1 x79 +1 x99 +1 x80 +1 x100 >= 1 ;
-1 x79 -1 x99 +1 x80 +1 x100 >= -1 ;
+1 x79 +1 x99 -1 x80 -1 x100 >= -1 ;
-1 x79 -1 x99 -1 x80 -1 x100 >= -3 ;
+1 x79 +1 x107 +1 x80 +1 x108 >= 1 ;
-1 x79 -1 x107 +1 x80 +1 x108 >= -1 ;
+1 x79 +1 x107 -1 x80 -1 x108 >= -1 ;
-1 x79 -1 x107 -1 x80 -1 x108 >= -3 ;
+1 x81 +1 x97 +1 x82 +1 x98 >= 1 ;
-1 x81 -1 x97 +1 x82 +1 x98 >= -1 ;
+1 x81 +1 x97 -1 x82 -1 x98 >= -1 ;
-1 x81 -1 x97 -1 x82 -1 x98 >= -3 ;
+1 x81 +1 x105 +1 x82 +1 x106 >= 1 ;
-1 x81 -1 x105 +1 x82 +1 x106 >= -1 ;
+1 x81 +1 x105 -1 x82 -1 x106 >= -1 ;
-1 x81 -1 x105 -1 x82 -1 x106 >= -3 ;
+1 x83 +1 x103 +1 x84 +1 x104 >= 1 ;
-1 x83 -1 x103 +1 x84 +1 x104 >= -1 ;
+1 x83 +1 x103 -1 x84 -1 x104 >= -1 ;
-1 x83 -1 x103 -1 x84 -1 x104 >= -3 ;
+1 x83 +1 x109 +1 x84 +1 x110 >= 1 ;
-1 x83 -1 x109 +1 x84 +1 x110 >= -1 ;
+1 x83 +1 x109 -1 x84 -1 x110 >= -1 ;
-1 x83 -1 x109 -1 x84 -1 x110 >= -3 ;
+1 x85 +1 x101 +1 x86 +1 x102 >= 1 ;
-1 x85 -1 x101 +1 x86 +1 x102 >= -1 ;
+1 x85 +1 x101 -1 x86 -1 x102 >= -1 ;
-1 x85 -1 x101 -1 x86 -1 x102 >= -3 ;
+1 x85 +1 x109 +1 x86 +1 x110 >= 1 ;
-1 x85 -1 x109 +1 x86 +1 x110 >= -1 ;
+1 x85 +1 x109 -1 x86 -1 x110 >= -1 ;
-1 x85 -1 x109 -1 x86 -1 x110 >= -3 ;
+1 x87 +1 x105 +1 x88 +1 x106 >= 1 ;
-1 x87 -1 x105 +1 x88 +1 x106 >= -1 ;
+1 x87 +1 x105 -1 x88 -1 x106 >= -1 ;
-1 x87 -1 x105 -1 x88 -1 x106 >= -3 ;
+1 x87 +1 x107 +1 x88 +1 x108 >= 1 ;
-1 x87 -1 x107 +1 x88 +1 x108 >= -1 ;
+1 x87 +1 x107 -1 x88 -1 x108 >= -1 ;
-1 x87 -1 x107 -1 x88 -1 x108 >= -3 ;
+1 x89 +1 x111 +1 x90 +1 x112 >= 1 ;
-1 x89 -1 x111 +1 x90 +1 x112 >= -1 ;
+1 x89 +1 x111 -1 x90 -1 x112 >= -1 ;
-1 x89 -1 x111 -1 x90 -1 x112 >= -3 ;
+1 x91 +1 x111 +1 x92 +1 x112 >= 1 ;
-1 x91 -1 x111 +1 x92 +1 x112 >= -1 ;
+1 x91 +1 x111 -1 x92 -1 x112 >= -1 ;
-1 x91 -1 x111 -1 x92 -1 x112 >= -3 ;
+1 x93 +1 x111 +1 x94 +1 x112 >= 1 ;
-1 x93 -1 x111 +1 x94 +1 x112 >= -1 ;
+1 x93 +1 x111 -1 x94 -1 x112 >= -1 ;
-1 x93 -1 x111 -1 x94 -1 x112 >= -3 ;
+1 x95 +1 x111 +1 x96 +1 x112 >= 1 ;
-1 x95 -1 x111 +1 x96 +1 x112 >= -1 ;
+1 x95 +1 x111 -1 x96 -1 x112 >= -1 ;
-1 x95 -1 x111 -1 x96 -1 x112 >= -3 ;
+1 x97 +1 x111 +1 x98 +1 x112 >= 1 ;
-1 x97 -1 x111 +1 x98 +1 x112 >= -1 ;
+1 x97 +1 x111 -1 x98 -1 x112 >= -1 ;
-1 x97 -1 x111 -1 x98 -1 x112 >= -3 ;
+1 x99 +1 x111 +1 x100 +1 x112 >= 1 ;
-1 x99 -1 x111 +1 x100 +1 x112 >= -1 ;
+1 x99 +1 x111 -1 x100 -1 x112 >= -1 ;
-1 x99 -1 x111 -1 x100 -1 x112 >= -3 ;
+1 x101 +1 x111 +1 x102 +1 x112 >= 1 ;
-1 x101 -1 x111 +1 x102 +1 x112 >= -1 ;
+1 x101 +1 x111 -1 x102 -1 x112 >= -1 ;
-1 x101 -1 x111 -1 x102 -1 x112 >= -3 ;
+1 x103 +1 x111 +1 x104 +1 x112 >= 1 ;
-1 x103 -1 x111 +1 x104 +1 x112 >= -1 ;
+1 x103 +1 x111 -1 x104 -1 x112 >= -1 ;
-1 x103 -1 x111 -1 x104 -1 x112 >= -3 ;
+1 x105 +1 x111 +1 x106 +1 x112 >= 1 ;
-1 x105 -1 x111 +1 x106 +1 x112 >= -1 ;
+1 x105 +1 x111 -1 x106 -1 x112 >= -1 ;
-1 x105 -1 x111 -1 x106 -1 x112 >= -3 ;
+1 x107 +1 x111 +1 x108 +1 x112 >= 1 ;
-1 x107 -1 x111 +1 x108 +1 x112 >= -1 ;
+1 x107 +1 x111 -1 x108 -1 x112 >= -1 ;
-1 x107 -1 x111 -1 x108 -1 x112 >= -3 ;
+1 x109 +1 x111 +1 x110 +1 x112 >= 1 ;
-1 x109 -1 x111 +1 x110 +1 x112 >= -1 ;
+1 x109 +1 x111 -1 x110 -1 x112 >= -1 ;
-1 x109 -1 x111 -1 x110 -1 x112 >= -3 ;
-4 x1 -8 x2 -3 x3 -6 x4 -2 x5 -4 x6 -1 x7 -2 x8 -4 x9 -8 x10 -10 x11 -20 x12 -8 x13 -16 x14 -4 x15 -8 x16 -7 x17 -14 x18 -5 x19 -10 x20 -3 x21 -6 x22 -3 x23 -6 x24 -4 x25 -8 x26 -1 x27 -2 x28 -9 x29 -18 x30 -7 x31 -14 x32 -6 x33 -12 x34 -8 x35 -16 x36 -2 x37 -4 x38 -5 x39 -10 x40 -8 x41 -16 x42 -5 x43 -10 x44 -4 x45 -8 x46 -9 x47 -18 x48 -9 x49 -18 x50 -6 x51 -12 x52 -8 x53 -16 x54 -3 x55 -6 x56 -5 x57 -10 x58 -3 x59 -6 x60 -9 x61 -18 x62 -8 x63 -16 x64 -1 x65 -2 x66 -10 x67 -20 x68 -7 x69 -14 x70 -2 x71 -4 x72 -2 x73 -4 x74 -2 x75 -4 x76 -8 x77 -16 x78 -6 x79 -12 x80 -10 x81 -20 x82 -6 x83 -12 x84 -8 x85 -16 x86 -6 x87 -12 x88 -2 x89 -4 x90 -1 x91 -2 x92 -1 x93 -2 x94 -3 x95 -6 x96 -6 x97 -12 x98 -4 x99 -8 x100 -8 x101 -16 x102 -9 x103 -18 x104 -10 x105 -20 x106 -8 x107 -16 x108 -1 x109 -2 x110 -9 x111 -18 x112 >= -173 ;
